# Solution for model icep
# Objective value = 990
flowLmbda[0,0] 10
flowLmbda[1,0] 10
flowBeta[0,0,0,0] 0
flowBeta[0,0,0,1] 21
flowBeta[0,0,1,0] 0
flowBeta[0,0,1,1] 0
flowBeta[0,1,0,0] 0
flowBeta[0,1,0,1] 0
flowBeta[0,1,1,0] 0
flowBeta[0,1,1,1] 21
flowBeta[0,2,0,0] 0
flowBeta[0,2,0,1] 0
flowBeta[0,2,1,0] 0
flowBeta[0,2,1,1] 21
flowBeta[0,3,0,0] 0
flowBeta[0,3,0,1] 0
flowBeta[0,3,1,0] 0
flowBeta[0,3,1,1] 21
flowBeta[0,4,0,0] 0
flowBeta[0,4,0,1] 21
flowBeta[0,4,1,0] 0
flowBeta[0,4,1,1] 0
flowBeta[0,5,0,0] 0
flowBeta[0,5,0,1] 0
flowBeta[0,5,1,0] 0
flowBeta[0,5,1,1] 21
flowBeta[0,6,0,0] 0
flowBeta[0,6,0,1] 21
flowBeta[0,6,1,0] 0
flowBeta[0,6,1,1] 0
flowBeta[0,7,0,0] 0
flowBeta[0,7,0,1] 0
flowBeta[0,7,1,0] 0
flowBeta[0,7,1,1] 21
flowBeta[0,8,0,0] 0
flowBeta[0,8,0,1] 21
flowBeta[0,8,1,0] 0
flowBeta[0,8,1,1] 0
flowBeta[0,9,0,0] 0
flowBeta[0,9,0,1] 21
flowBeta[0,9,1,0] 0
flowBeta[0,9,1,1] 0
flowBeta[0,10,0,0] 0
flowBeta[0,10,0,1] 20
flowBeta[0,10,1,0] 0
flowBeta[0,10,1,1] 0
flowBeta[0,11,0,0] 0
flowBeta[0,11,0,1] 0
flowBeta[0,11,1,0] 0
flowBeta[0,11,1,1] 20
flowBeta[0,12,0,0] 0
flowBeta[0,12,0,1] 0
flowBeta[0,12,1,0] 0
flowBeta[0,12,1,1] 0
flowBeta[0,13,0,0] 0
flowBeta[0,13,0,1] 0
flowBeta[0,13,1,0] 0
flowBeta[0,13,1,1] 0
flowBeta[1,0,0,0] 0
flowBeta[1,0,0,1] 22
flowBeta[1,0,1,0] 0
flowBeta[1,0,1,1] 0
flowBeta[1,1,0,0] 0
flowBeta[1,1,0,1] 22
flowBeta[1,1,1,0] 0
flowBeta[1,1,1,1] 0
flowBeta[1,2,0,0] 0
flowBeta[1,2,0,1] 0
flowBeta[1,2,1,0] 0
flowBeta[1,2,1,1] 22
flowBeta[1,3,0,0] 0
flowBeta[1,3,0,1] 22
flowBeta[1,3,1,0] 0
flowBeta[1,3,1,1] 0
flowBeta[1,4,0,0] 0
flowBeta[1,4,0,1] 0
flowBeta[1,4,1,0] 0
flowBeta[1,4,1,1] 22
flowBeta[1,5,0,0] 0
flowBeta[1,5,0,1] 0
flowBeta[1,5,1,0] 0
flowBeta[1,5,1,1] 22
flowBeta[1,6,0,0] 0
flowBeta[1,6,0,1] 0
flowBeta[1,6,1,0] 0
flowBeta[1,6,1,1] 22
flowBeta[1,7,0,0] 0
flowBeta[1,7,0,1] 0
flowBeta[1,7,1,0] 0
flowBeta[1,7,1,1] 22
flowBeta[1,8,0,0] 0
flowBeta[1,8,0,1] 22
flowBeta[1,8,1,0] 0
flowBeta[1,8,1,1] 0
flowBeta[1,9,0,0] 0
flowBeta[1,9,0,1] 22
flowBeta[1,9,1,0] 0
flowBeta[1,9,1,1] 0
flowBeta[1,10,0,0] 0
flowBeta[1,10,0,1] 0
flowBeta[1,10,1,0] 0
flowBeta[1,10,1,1] 22
flowBeta[1,11,0,0] 0
flowBeta[1,11,0,1] 22
flowBeta[1,11,1,0] 0
flowBeta[1,11,1,1] 0
flowBeta[1,12,0,0] 0
flowBeta[1,12,0,1] 0
flowBeta[1,12,1,0] 0
flowBeta[1,12,1,1] 22
flowBeta[1,13,0,0] 0
flowBeta[1,13,0,1] 22
flowBeta[1,13,1,0] 0
flowBeta[1,13,1,1] 0
flowBeta[2,0,0,0] 0
flowBeta[2,0,0,1] 23
flowBeta[2,0,1,0] 0
flowBeta[2,0,1,1] 0
flowBeta[2,1,0,0] 0
flowBeta[2,1,0,1] 0
flowBeta[2,1,1,0] 0
flowBeta[2,1,1,1] 23
flowBeta[2,2,0,0] 0
flowBeta[2,2,0,1] 0
flowBeta[2,2,1,0] 0
flowBeta[2,2,1,1] 23
flowBeta[2,3,0,0] 0
flowBeta[2,3,0,1] 0
flowBeta[2,3,1,0] 0
flowBeta[2,3,1,1] 23
flowBeta[2,4,0,0] 0
flowBeta[2,4,0,1] 0
flowBeta[2,4,1,0] 0
flowBeta[2,4,1,1] 23
flowBeta[2,5,0,0] 0
flowBeta[2,5,0,1] 0
flowBeta[2,5,1,0] 0
flowBeta[2,5,1,1] 23
flowBeta[2,6,0,0] 0
flowBeta[2,6,0,1] 0
flowBeta[2,6,1,0] 0
flowBeta[2,6,1,1] 23
flowBeta[2,7,0,0] 0
flowBeta[2,7,0,1] 23
flowBeta[2,7,1,0] 0
flowBeta[2,7,1,1] 0
flowBeta[2,8,0,0] 0
flowBeta[2,8,0,1] 0
flowBeta[2,8,1,0] 0
flowBeta[2,8,1,1] 23
flowBeta[2,9,0,0] 0
flowBeta[2,9,0,1] 23
flowBeta[2,9,1,0] 0
flowBeta[2,9,1,1] 0
flowBeta[2,10,0,0] 0
flowBeta[2,10,0,1] 23
flowBeta[2,10,1,0] 0
flowBeta[2,10,1,1] 0
flowBeta[2,11,0,0] 0
flowBeta[2,11,0,1] 23
flowBeta[2,11,1,0] 0
flowBeta[2,11,1,1] 0
flowBeta[2,12,0,0] 0
flowBeta[2,12,0,1] 23
flowBeta[2,12,1,0] 0
flowBeta[2,12,1,1] 0
flowBeta[2,13,0,0] 0
flowBeta[2,13,0,1] 23
flowBeta[2,13,1,0] 0
flowBeta[2,13,1,1] 0
flowGamma[0,0,0,0] 0
flowGamma[0,0,0,1] 0
flowGamma[0,0,0,2] 0
flowGamma[0,0,1,0] 21
flowGamma[0,0,1,1] 0
flowGamma[0,0,1,2] 0
flowGamma[0,1,0,0] 0
flowGamma[0,1,0,1] 0
flowGamma[0,1,0,2] 0
flowGamma[0,1,1,0] 21
flowGamma[0,1,1,1] 0
flowGamma[0,1,1,2] 0
flowGamma[0,2,0,0] 0
flowGamma[0,2,0,1] 0
flowGamma[0,2,0,2] 0
flowGamma[0,2,1,0] 21
flowGamma[0,2,1,1] 0
flowGamma[0,2,1,2] 0
flowGamma[0,3,0,0] 0
flowGamma[0,3,0,1] 0
flowGamma[0,3,0,2] 0
flowGamma[0,3,1,0] 21
flowGamma[0,3,1,1] 0
flowGamma[0,3,1,2] 0
flowGamma[0,4,0,0] 0
flowGamma[0,4,0,1] 0
flowGamma[0,4,0,2] 0
flowGamma[0,4,1,0] 21
flowGamma[0,4,1,1] 0
flowGamma[0,4,1,2] 0
flowGamma[0,5,0,0] 0
flowGamma[0,5,0,1] 0
flowGamma[0,5,0,2] 0
flowGamma[0,5,1,0] 21
flowGamma[0,5,1,1] 0
flowGamma[0,5,1,2] 0
flowGamma[0,6,0,0] 0
flowGamma[0,6,0,1] 0
flowGamma[0,6,0,2] 0
flowGamma[0,6,1,0] 21
flowGamma[0,6,1,1] 0
flowGamma[0,6,1,2] 0
flowGamma[0,7,0,0] 0
flowGamma[0,7,0,1] 0
flowGamma[0,7,0,2] 0
flowGamma[0,7,1,0] 21
flowGamma[0,7,1,1] 0
flowGamma[0,7,1,2] 0
flowGamma[0,8,0,0] 0
flowGamma[0,8,0,1] 0
flowGamma[0,8,0,2] 0
flowGamma[0,8,1,0] 21
flowGamma[0,8,1,1] 0
flowGamma[0,8,1,2] 0
flowGamma[0,9,0,0] 0
flowGamma[0,9,0,1] 0
flowGamma[0,9,0,2] 0
flowGamma[0,9,1,0] 21
flowGamma[0,9,1,1] 0
flowGamma[0,9,1,2] 0
flowGamma[0,10,0,0] 0
flowGamma[0,10,0,1] 0
flowGamma[0,10,0,2] 0
flowGamma[0,10,1,0] 20
flowGamma[0,10,1,1] 0
flowGamma[0,10,1,2] 0
flowGamma[0,11,0,0] 0
flowGamma[0,11,0,1] 0
flowGamma[0,11,0,2] 0
flowGamma[0,11,1,0] 20
flowGamma[0,11,1,1] 0
flowGamma[0,11,1,2] 0
flowGamma[0,12,0,0] 0
flowGamma[0,12,0,1] 0
flowGamma[0,12,0,2] 0
flowGamma[0,12,1,0] 0
flowGamma[0,12,1,1] 0
flowGamma[0,12,1,2] 0
flowGamma[0,13,0,0] 0
flowGamma[0,13,0,1] 0
flowGamma[0,13,0,2] 0
flowGamma[0,13,1,0] 0
flowGamma[0,13,1,1] 0
flowGamma[0,13,1,2] 0
flowGamma[1,0,0,0] 0
flowGamma[1,0,0,1] 0
flowGamma[1,0,0,2] 0
flowGamma[1,0,1,0] 22
flowGamma[1,0,1,1] 0
flowGamma[1,0,1,2] 0
flowGamma[1,1,0,0] 0
flowGamma[1,1,0,1] 0
flowGamma[1,1,0,2] 0
flowGamma[1,1,1,0] 22
flowGamma[1,1,1,1] 0
flowGamma[1,1,1,2] 0
flowGamma[1,2,0,0] 0
flowGamma[1,2,0,1] 0
flowGamma[1,2,0,2] 0
flowGamma[1,2,1,0] 22
flowGamma[1,2,1,1] 0
flowGamma[1,2,1,2] 0
flowGamma[1,3,0,0] 0
flowGamma[1,3,0,1] 0
flowGamma[1,3,0,2] 0
flowGamma[1,3,1,0] 22
flowGamma[1,3,1,1] 0
flowGamma[1,3,1,2] 0
flowGamma[1,4,0,0] 0
flowGamma[1,4,0,1] 0
flowGamma[1,4,0,2] 0
flowGamma[1,4,1,0] 22
flowGamma[1,4,1,1] 0
flowGamma[1,4,1,2] 0
flowGamma[1,5,0,0] 0
flowGamma[1,5,0,1] 0
flowGamma[1,5,0,2] 0
flowGamma[1,5,1,0] 22
flowGamma[1,5,1,1] 0
flowGamma[1,5,1,2] 0
flowGamma[1,6,0,0] 0
flowGamma[1,6,0,1] 0
flowGamma[1,6,0,2] 0
flowGamma[1,6,1,0] 22
flowGamma[1,6,1,1] 0
flowGamma[1,6,1,2] 0
flowGamma[1,7,0,0] 0
flowGamma[1,7,0,1] 0
flowGamma[1,7,0,2] 0
flowGamma[1,7,1,0] 22
flowGamma[1,7,1,1] 0
flowGamma[1,7,1,2] 0
flowGamma[1,8,0,0] 0
flowGamma[1,8,0,1] 0
flowGamma[1,8,0,2] 0
flowGamma[1,8,1,0] 22
flowGamma[1,8,1,1] 0
flowGamma[1,8,1,2] 0
flowGamma[1,9,0,0] 0
flowGamma[1,9,0,1] 0
flowGamma[1,9,0,2] 0
flowGamma[1,9,1,0] 22
flowGamma[1,9,1,1] 0
flowGamma[1,9,1,2] 0
flowGamma[1,10,0,0] 0
flowGamma[1,10,0,1] 0
flowGamma[1,10,0,2] 0
flowGamma[1,10,1,0] 22
flowGamma[1,10,1,1] 0
flowGamma[1,10,1,2] 0
flowGamma[1,11,0,0] 0
flowGamma[1,11,0,1] 0
flowGamma[1,11,0,2] 0
flowGamma[1,11,1,0] 22
flowGamma[1,11,1,1] 0
flowGamma[1,11,1,2] 0
flowGamma[1,12,0,0] 0
flowGamma[1,12,0,1] 0
flowGamma[1,12,0,2] 0
flowGamma[1,12,1,0] 22
flowGamma[1,12,1,1] 0
flowGamma[1,12,1,2] 0
flowGamma[1,13,0,0] 0
flowGamma[1,13,0,1] 0
flowGamma[1,13,0,2] 0
flowGamma[1,13,1,0] 22
flowGamma[1,13,1,1] 0
flowGamma[1,13,1,2] 0
flowGamma[2,0,0,0] 0
flowGamma[2,0,0,1] 0
flowGamma[2,0,0,2] 0
flowGamma[2,0,1,0] 23
flowGamma[2,0,1,1] 0
flowGamma[2,0,1,2] 0
flowGamma[2,1,0,0] 0
flowGamma[2,1,0,1] 0
flowGamma[2,1,0,2] 0
flowGamma[2,1,1,0] 23
flowGamma[2,1,1,1] 0
flowGamma[2,1,1,2] 0
flowGamma[2,2,0,0] 0
flowGamma[2,2,0,1] 0
flowGamma[2,2,0,2] 0
flowGamma[2,2,1,0] 23
flowGamma[2,2,1,1] 0
flowGamma[2,2,1,2] 0
flowGamma[2,3,0,0] 0
flowGamma[2,3,0,1] 0
flowGamma[2,3,0,2] 0
flowGamma[2,3,1,0] 23
flowGamma[2,3,1,1] 0
flowGamma[2,3,1,2] 0
flowGamma[2,4,0,0] 0
flowGamma[2,4,0,1] 0
flowGamma[2,4,0,2] 0
flowGamma[2,4,1,0] 23
flowGamma[2,4,1,1] 0
flowGamma[2,4,1,2] 0
flowGamma[2,5,0,0] 0
flowGamma[2,5,0,1] 0
flowGamma[2,5,0,2] 0
flowGamma[2,5,1,0] 23
flowGamma[2,5,1,1] 0
flowGamma[2,5,1,2] 0
flowGamma[2,6,0,0] 0
flowGamma[2,6,0,1] 0
flowGamma[2,6,0,2] 0
flowGamma[2,6,1,0] 23
flowGamma[2,6,1,1] 0
flowGamma[2,6,1,2] 0
flowGamma[2,7,0,0] 0
flowGamma[2,7,0,1] 0
flowGamma[2,7,0,2] 0
flowGamma[2,7,1,0] 23
flowGamma[2,7,1,1] 0
flowGamma[2,7,1,2] 0
flowGamma[2,8,0,0] 0
flowGamma[2,8,0,1] 0
flowGamma[2,8,0,2] 0
flowGamma[2,8,1,0] 23
flowGamma[2,8,1,1] 0
flowGamma[2,8,1,2] 0
flowGamma[2,9,0,0] 0
flowGamma[2,9,0,1] 0
flowGamma[2,9,0,2] 0
flowGamma[2,9,1,0] 23
flowGamma[2,9,1,1] 0
flowGamma[2,9,1,2] 0
flowGamma[2,10,0,0] 0
flowGamma[2,10,0,1] 0
flowGamma[2,10,0,2] 0
flowGamma[2,10,1,0] 23
flowGamma[2,10,1,1] 0
flowGamma[2,10,1,2] 0
flowGamma[2,11,0,0] 0
flowGamma[2,11,0,1] 0
flowGamma[2,11,0,2] 0
flowGamma[2,11,1,0] 23
flowGamma[2,11,1,1] 0
flowGamma[2,11,1,2] 0
flowGamma[2,12,0,0] 0
flowGamma[2,12,0,1] 0
flowGamma[2,12,0,2] 0
flowGamma[2,12,1,0] 23
flowGamma[2,12,1,1] 0
flowGamma[2,12,1,2] 0
flowGamma[2,13,0,0] 0
flowGamma[2,13,0,1] 0
flowGamma[2,13,0,2] 0
flowGamma[2,13,1,0] 23
flowGamma[2,13,1,1] 0
flowGamma[2,13,1,2] 0
flowEpsilon[0,0,0,0] 21
flowEpsilon[0,0,1,0] 0
flowEpsilon[0,0,2,0] 0
flowEpsilon[0,1,0,0] 21
flowEpsilon[0,1,1,0] 0
flowEpsilon[0,1,2,0] 0
flowEpsilon[0,2,0,0] 21
flowEpsilon[0,2,1,0] 0
flowEpsilon[0,2,2,0] 0
flowEpsilon[0,3,0,0] 21
flowEpsilon[0,3,1,0] 0
flowEpsilon[0,3,2,0] 0
flowEpsilon[0,4,0,0] 21
flowEpsilon[0,4,1,0] 0
flowEpsilon[0,4,2,0] 0
flowEpsilon[0,5,0,0] 21
flowEpsilon[0,5,1,0] 0
flowEpsilon[0,5,2,0] 0
flowEpsilon[0,6,0,0] 21
flowEpsilon[0,6,1,0] 0
flowEpsilon[0,6,2,0] 0
flowEpsilon[0,7,0,0] 21
flowEpsilon[0,7,1,0] 0
flowEpsilon[0,7,2,0] 0
flowEpsilon[0,8,0,0] 21
flowEpsilon[0,8,1,0] 0
flowEpsilon[0,8,2,0] 0
flowEpsilon[0,9,0,0] 21
flowEpsilon[0,9,1,0] 0
flowEpsilon[0,9,2,0] 0
flowEpsilon[0,10,0,0] 20
flowEpsilon[0,10,1,0] 0
flowEpsilon[0,10,2,0] 0
flowEpsilon[0,11,0,0] 20
flowEpsilon[0,11,1,0] 0
flowEpsilon[0,11,2,0] 0
flowEpsilon[0,12,0,0] 0
flowEpsilon[0,12,1,0] 0
flowEpsilon[0,12,2,0] 0
flowEpsilon[0,13,0,0] 0
flowEpsilon[0,13,1,0] 0
flowEpsilon[0,13,2,0] 0
flowEpsilon[1,0,0,0] 22
flowEpsilon[1,0,1,0] 0
flowEpsilon[1,0,2,0] 0
flowEpsilon[1,1,0,0] 22
flowEpsilon[1,1,1,0] 0
flowEpsilon[1,1,2,0] 0
flowEpsilon[1,2,0,0] 22
flowEpsilon[1,2,1,0] 0
flowEpsilon[1,2,2,0] 0
flowEpsilon[1,3,0,0] 22
flowEpsilon[1,3,1,0] 0
flowEpsilon[1,3,2,0] 0
flowEpsilon[1,4,0,0] 22
flowEpsilon[1,4,1,0] 0
flowEpsilon[1,4,2,0] 0
flowEpsilon[1,5,0,0] 22
flowEpsilon[1,5,1,0] 0
flowEpsilon[1,5,2,0] 0
flowEpsilon[1,6,0,0] 22
flowEpsilon[1,6,1,0] 0
flowEpsilon[1,6,2,0] 0
flowEpsilon[1,7,0,0] 22
flowEpsilon[1,7,1,0] 0
flowEpsilon[1,7,2,0] 0
flowEpsilon[1,8,0,0] 22
flowEpsilon[1,8,1,0] 0
flowEpsilon[1,8,2,0] 0
flowEpsilon[1,9,0,0] 22
flowEpsilon[1,9,1,0] 0
flowEpsilon[1,9,2,0] 0
flowEpsilon[1,10,0,0] 22
flowEpsilon[1,10,1,0] 0
flowEpsilon[1,10,2,0] 0
flowEpsilon[1,11,0,0] 22
flowEpsilon[1,11,1,0] 0
flowEpsilon[1,11,2,0] 0
flowEpsilon[1,12,0,0] 22
flowEpsilon[1,12,1,0] 0
flowEpsilon[1,12,2,0] 0
flowEpsilon[1,13,0,0] 22
flowEpsilon[1,13,1,0] 0
flowEpsilon[1,13,2,0] 0
flowEpsilon[2,0,0,0] 23
flowEpsilon[2,0,1,0] 0
flowEpsilon[2,0,2,0] 0
flowEpsilon[2,1,0,0] 23
flowEpsilon[2,1,1,0] 0
flowEpsilon[2,1,2,0] 0
flowEpsilon[2,2,0,0] 23
flowEpsilon[2,2,1,0] 0
flowEpsilon[2,2,2,0] 0
flowEpsilon[2,3,0,0] 23
flowEpsilon[2,3,1,0] 0
flowEpsilon[2,3,2,0] 0
flowEpsilon[2,4,0,0] 23
flowEpsilon[2,4,1,0] 0
flowEpsilon[2,4,2,0] 0
flowEpsilon[2,5,0,0] 23
flowEpsilon[2,5,1,0] 0
flowEpsilon[2,5,2,0] 0
flowEpsilon[2,6,0,0] 23
flowEpsilon[2,6,1,0] 0
flowEpsilon[2,6,2,0] 0
flowEpsilon[2,7,0,0] 23
flowEpsilon[2,7,1,0] 0
flowEpsilon[2,7,2,0] 0
flowEpsilon[2,8,0,0] 23
flowEpsilon[2,8,1,0] 0
flowEpsilon[2,8,2,0] 0
flowEpsilon[2,9,0,0] 23
flowEpsilon[2,9,1,0] 0
flowEpsilon[2,9,2,0] 0
flowEpsilon[2,10,0,0] 23
flowEpsilon[2,10,1,0] 0
flowEpsilon[2,10,2,0] 0
flowEpsilon[2,11,0,0] 23
flowEpsilon[2,11,1,0] 0
flowEpsilon[2,11,2,0] 0
flowEpsilon[2,12,0,0] 23
flowEpsilon[2,12,1,0] 0
flowEpsilon[2,12,2,0] 0
flowEpsilon[2,13,0,0] 23
flowEpsilon[2,13,1,0] 0
flowEpsilon[2,13,2,0] 0
zetaSelect[0,0,0] 0
zetaSelect[0,0,1] 1
zetaSelect[0,1,0] 0
zetaSelect[0,1,1] 0
zetaSelect[1,0,0] 0
zetaSelect[1,0,1] 0
zetaSelect[1,1,0] 0
zetaSelect[1,1,1] 1
zetaSelect[2,0,0] 0
zetaSelect[2,0,1] 0
zetaSelect[2,1,0] 0
zetaSelect[2,1,1] 1
gammaSelect[0,0,0,0] 0
gammaSelect[0,0,0,1] 0
gammaSelect[0,0,0,2] 0
gammaSelect[0,0,1,0] 1
gammaSelect[0,0,1,1] 0
gammaSelect[0,0,1,2] 0
gammaSelect[0,1,0,0] 0
gammaSelect[0,1,0,1] 0
gammaSelect[0,1,0,2] 0
gammaSelect[0,1,1,0] 1
gammaSelect[0,1,1,1] 0
gammaSelect[0,1,1,2] 0
gammaSelect[0,2,0,0] 0
gammaSelect[0,2,0,1] 0
gammaSelect[0,2,0,2] 0
gammaSelect[0,2,1,0] 1
gammaSelect[0,2,1,1] 0
gammaSelect[0,2,1,2] 0
gammaSelect[0,3,0,0] 0
gammaSelect[0,3,0,1] 0
gammaSelect[0,3,0,2] 0
gammaSelect[0,3,1,0] 1
gammaSelect[0,3,1,1] 0
gammaSelect[0,3,1,2] 0
gammaSelect[0,4,0,0] 0
gammaSelect[0,4,0,1] 0
gammaSelect[0,4,0,2] 0
gammaSelect[0,4,1,0] 1
gammaSelect[0,4,1,1] 0
gammaSelect[0,4,1,2] 0
gammaSelect[0,5,0,0] 0
gammaSelect[0,5,0,1] 0
gammaSelect[0,5,0,2] 0
gammaSelect[0,5,1,0] 1
gammaSelect[0,5,1,1] 0
gammaSelect[0,5,1,2] 0
gammaSelect[0,6,0,0] 0
gammaSelect[0,6,0,1] 0
gammaSelect[0,6,0,2] 0
gammaSelect[0,6,1,0] 1
gammaSelect[0,6,1,1] 0
gammaSelect[0,6,1,2] 0
gammaSelect[0,7,0,0] 0
gammaSelect[0,7,0,1] 0
gammaSelect[0,7,0,2] 0
gammaSelect[0,7,1,0] 1
gammaSelect[0,7,1,1] 0
gammaSelect[0,7,1,2] 0
gammaSelect[0,8,0,0] 0
gammaSelect[0,8,0,1] 0
gammaSelect[0,8,0,2] 0
gammaSelect[0,8,1,0] 1
gammaSelect[0,8,1,1] 0
gammaSelect[0,8,1,2] 0
gammaSelect[0,9,0,0] 0
gammaSelect[0,9,0,1] 0
gammaSelect[0,9,0,2] 0
gammaSelect[0,9,1,0] 1
gammaSelect[0,9,1,1] 0
gammaSelect[0,9,1,2] 0
gammaSelect[0,10,0,0] 0
gammaSelect[0,10,0,1] 0
gammaSelect[0,10,0,2] 0
gammaSelect[0,10,1,0] 1
gammaSelect[0,10,1,1] 0
gammaSelect[0,10,1,2] 0
gammaSelect[0,11,0,0] 0
gammaSelect[0,11,0,1] 0
gammaSelect[0,11,0,2] 0
gammaSelect[0,11,1,0] 1
gammaSelect[0,11,1,1] 0
gammaSelect[0,11,1,2] 0
gammaSelect[0,12,0,0] 0
gammaSelect[0,12,0,1] 0
gammaSelect[0,12,0,2] 0
gammaSelect[0,12,1,0] 0
gammaSelect[0,12,1,1] 0
gammaSelect[0,12,1,2] 0
gammaSelect[0,13,0,0] 0
gammaSelect[0,13,0,1] 0
gammaSelect[0,13,0,2] 0
gammaSelect[0,13,1,0] 0
gammaSelect[0,13,1,1] 0
gammaSelect[0,13,1,2] 0
gammaSelect[1,0,0,0] 0
gammaSelect[1,0,0,1] 0
gammaSelect[1,0,0,2] 0
gammaSelect[1,0,1,0] 1
gammaSelect[1,0,1,1] 0
gammaSelect[1,0,1,2] 0
gammaSelect[1,1,0,0] 0
gammaSelect[1,1,0,1] 0
gammaSelect[1,1,0,2] 0
gammaSelect[1,1,1,0] 1
gammaSelect[1,1,1,1] 0
gammaSelect[1,1,1,2] 0
gammaSelect[1,2,0,0] 0
gammaSelect[1,2,0,1] 0
gammaSelect[1,2,0,2] 0
gammaSelect[1,2,1,0] 1
gammaSelect[1,2,1,1] 0
gammaSelect[1,2,1,2] 0
gammaSelect[1,3,0,0] 0
gammaSelect[1,3,0,1] 0
gammaSelect[1,3,0,2] 0
gammaSelect[1,3,1,0] 1
gammaSelect[1,3,1,1] 0
gammaSelect[1,3,1,2] 0
gammaSelect[1,4,0,0] 0
gammaSelect[1,4,0,1] 0
gammaSelect[1,4,0,2] 0
gammaSelect[1,4,1,0] 1
gammaSelect[1,4,1,1] 0
gammaSelect[1,4,1,2] 0
gammaSelect[1,5,0,0] 0
gammaSelect[1,5,0,1] 0
gammaSelect[1,5,0,2] 0
gammaSelect[1,5,1,0] 1
gammaSelect[1,5,1,1] 0
gammaSelect[1,5,1,2] 0
gammaSelect[1,6,0,0] 0
gammaSelect[1,6,0,1] 0
gammaSelect[1,6,0,2] 0
gammaSelect[1,6,1,0] 1
gammaSelect[1,6,1,1] 0
gammaSelect[1,6,1,2] 0
gammaSelect[1,7,0,0] 0
gammaSelect[1,7,0,1] 0
gammaSelect[1,7,0,2] 0
gammaSelect[1,7,1,0] 1
gammaSelect[1,7,1,1] 0
gammaSelect[1,7,1,2] 0
gammaSelect[1,8,0,0] 0
gammaSelect[1,8,0,1] 0
gammaSelect[1,8,0,2] 0
gammaSelect[1,8,1,0] 1
gammaSelect[1,8,1,1] 0
gammaSelect[1,8,1,2] 0
gammaSelect[1,9,0,0] 0
gammaSelect[1,9,0,1] 0
gammaSelect[1,9,0,2] 0
gammaSelect[1,9,1,0] 1
gammaSelect[1,9,1,1] 0
gammaSelect[1,9,1,2] 0
gammaSelect[1,10,0,0] 0
gammaSelect[1,10,0,1] 0
gammaSelect[1,10,0,2] 0
gammaSelect[1,10,1,0] 1
gammaSelect[1,10,1,1] 0
gammaSelect[1,10,1,2] 0
gammaSelect[1,11,0,0] 0
gammaSelect[1,11,0,1] 0
gammaSelect[1,11,0,2] 0
gammaSelect[1,11,1,0] 1
gammaSelect[1,11,1,1] 0
gammaSelect[1,11,1,2] 0
gammaSelect[1,12,0,0] 0
gammaSelect[1,12,0,1] 0
gammaSelect[1,12,0,2] 0
gammaSelect[1,12,1,0] 1
gammaSelect[1,12,1,1] 0
gammaSelect[1,12,1,2] 0
gammaSelect[1,13,0,0] 0
gammaSelect[1,13,0,1] 0
gammaSelect[1,13,0,2] 0
gammaSelect[1,13,1,0] 1
gammaSelect[1,13,1,1] 0
gammaSelect[1,13,1,2] 0
gammaSelect[2,0,0,0] 0
gammaSelect[2,0,0,1] 0
gammaSelect[2,0,0,2] 0
gammaSelect[2,0,1,0] 1
gammaSelect[2,0,1,1] 0
gammaSelect[2,0,1,2] 0
gammaSelect[2,1,0,0] 0
gammaSelect[2,1,0,1] 0
gammaSelect[2,1,0,2] 0
gammaSelect[2,1,1,0] 1
gammaSelect[2,1,1,1] 0
gammaSelect[2,1,1,2] 0
gammaSelect[2,2,0,0] 0
gammaSelect[2,2,0,1] 0
gammaSelect[2,2,0,2] 0
gammaSelect[2,2,1,0] 1
gammaSelect[2,2,1,1] 0
gammaSelect[2,2,1,2] 0
gammaSelect[2,3,0,0] 0
gammaSelect[2,3,0,1] 0
gammaSelect[2,3,0,2] 0
gammaSelect[2,3,1,0] 1
gammaSelect[2,3,1,1] 0
gammaSelect[2,3,1,2] 0
gammaSelect[2,4,0,0] 0
gammaSelect[2,4,0,1] 0
gammaSelect[2,4,0,2] 0
gammaSelect[2,4,1,0] 1
gammaSelect[2,4,1,1] 0
gammaSelect[2,4,1,2] 0
gammaSelect[2,5,0,0] 0
gammaSelect[2,5,0,1] 0
gammaSelect[2,5,0,2] 0
gammaSelect[2,5,1,0] 1
gammaSelect[2,5,1,1] 0
gammaSelect[2,5,1,2] 0
gammaSelect[2,6,0,0] 0
gammaSelect[2,6,0,1] 0
gammaSelect[2,6,0,2] 0
gammaSelect[2,6,1,0] 1
gammaSelect[2,6,1,1] 0
gammaSelect[2,6,1,2] 0
gammaSelect[2,7,0,0] 0
gammaSelect[2,7,0,1] 0
gammaSelect[2,7,0,2] 0
gammaSelect[2,7,1,0] 1
gammaSelect[2,7,1,1] 0
gammaSelect[2,7,1,2] 0
gammaSelect[2,8,0,0] 0
gammaSelect[2,8,0,1] 0
gammaSelect[2,8,0,2] 0
gammaSelect[2,8,1,0] 1
gammaSelect[2,8,1,1] 0
gammaSelect[2,8,1,2] 0
gammaSelect[2,9,0,0] 0
gammaSelect[2,9,0,1] 0
gammaSelect[2,9,0,2] 0
gammaSelect[2,9,1,0] 1
gammaSelect[2,9,1,1] 0
gammaSelect[2,9,1,2] 0
gammaSelect[2,10,0,0] 0
gammaSelect[2,10,0,1] 0
gammaSelect[2,10,0,2] 0
gammaSelect[2,10,1,0] 1
gammaSelect[2,10,1,1] 0
gammaSelect[2,10,1,2] 0
gammaSelect[2,11,0,0] 0
gammaSelect[2,11,0,1] 0
gammaSelect[2,11,0,2] 0
gammaSelect[2,11,1,0] 1
gammaSelect[2,11,1,1] 0
gammaSelect[2,11,1,2] 0
gammaSelect[2,12,0,0] 0
gammaSelect[2,12,0,1] 0
gammaSelect[2,12,0,2] 0
gammaSelect[2,12,1,0] 1
gammaSelect[2,12,1,1] 0
gammaSelect[2,12,1,2] 0
gammaSelect[2,13,0,0] 0
gammaSelect[2,13,0,1] 0
gammaSelect[2,13,0,2] 0
gammaSelect[2,13,1,0] 1
gammaSelect[2,13,1,1] 0
gammaSelect[2,13,1,2] 0
deltaSelect[0,0,0,0] 0
deltaSelect[0,0,0,1] 1
deltaSelect[0,0,1,0] 0
deltaSelect[0,0,1,1] 0
deltaSelect[0,0,2,0] 0
deltaSelect[0,0,2,1] 0
deltaSelect[0,1,0,0] 0
deltaSelect[0,1,0,1] 1
deltaSelect[0,1,1,0] 0
deltaSelect[0,1,1,1] 0
deltaSelect[0,1,2,0] 0
deltaSelect[0,1,2,1] 0
deltaSelect[0,2,0,0] 0
deltaSelect[0,2,0,1] 1
deltaSelect[0,2,1,0] 0
deltaSelect[0,2,1,1] 0
deltaSelect[0,2,2,0] 0
deltaSelect[0,2,2,1] 0
deltaSelect[0,3,0,0] 0
deltaSelect[0,3,0,1] 1
deltaSelect[0,3,1,0] 0
deltaSelect[0,3,1,1] 0
deltaSelect[0,3,2,0] 0
deltaSelect[0,3,2,1] 0
deltaSelect[0,4,0,0] 0
deltaSelect[0,4,0,1] 1
deltaSelect[0,4,1,0] 0
deltaSelect[0,4,1,1] 0
deltaSelect[0,4,2,0] 0
deltaSelect[0,4,2,1] 0
deltaSelect[0,5,0,0] 0
deltaSelect[0,5,0,1] 1
deltaSelect[0,5,1,0] 0
deltaSelect[0,5,1,1] 0
deltaSelect[0,5,2,0] 0
deltaSelect[0,5,2,1] 0
deltaSelect[0,6,0,0] 0
deltaSelect[0,6,0,1] 1
deltaSelect[0,6,1,0] 0
deltaSelect[0,6,1,1] 0
deltaSelect[0,6,2,0] 0
deltaSelect[0,6,2,1] 0
deltaSelect[0,7,0,0] 0
deltaSelect[0,7,0,1] 1
deltaSelect[0,7,1,0] 0
deltaSelect[0,7,1,1] 0
deltaSelect[0,7,2,0] 0
deltaSelect[0,7,2,1] 0
deltaSelect[0,8,0,0] 0
deltaSelect[0,8,0,1] 1
deltaSelect[0,8,1,0] 0
deltaSelect[0,8,1,1] 0
deltaSelect[0,8,2,0] 0
deltaSelect[0,8,2,1] 0
deltaSelect[0,9,0,0] 0
deltaSelect[0,9,0,1] 1
deltaSelect[0,9,1,0] 0
deltaSelect[0,9,1,1] 0
deltaSelect[0,9,2,0] 0
deltaSelect[0,9,2,1] 0
deltaSelect[0,10,0,0] 0
deltaSelect[0,10,0,1] 1
deltaSelect[0,10,1,0] 0
deltaSelect[0,10,1,1] 0
deltaSelect[0,10,2,0] 0
deltaSelect[0,10,2,1] 0
deltaSelect[0,11,0,0] 0
deltaSelect[0,11,0,1] 0
deltaSelect[0,11,1,0] 0
deltaSelect[0,11,1,1] 0
deltaSelect[0,11,2,0] 0
deltaSelect[0,11,2,1] 0
deltaSelect[0,12,0,0] 0
deltaSelect[0,12,0,1] 0
deltaSelect[0,12,1,0] 0
deltaSelect[0,12,1,1] 0
deltaSelect[0,12,2,0] 0
deltaSelect[0,12,2,1] 0
deltaSelect[0,13,0,0] 0
deltaSelect[0,13,0,1] 0
deltaSelect[0,13,1,0] 0
deltaSelect[0,13,1,1] 0
deltaSelect[0,13,2,0] 0
deltaSelect[0,13,2,1] 0
deltaSelect[1,0,0,0] 0
deltaSelect[1,0,0,1] 1
deltaSelect[1,0,1,0] 0
deltaSelect[1,0,1,1] 0
deltaSelect[1,0,2,0] 0
deltaSelect[1,0,2,1] 0
deltaSelect[1,1,0,0] 0
deltaSelect[1,1,0,1] 1
deltaSelect[1,1,1,0] 0
deltaSelect[1,1,1,1] 0
deltaSelect[1,1,2,0] 0
deltaSelect[1,1,2,1] 0
deltaSelect[1,2,0,0] 0
deltaSelect[1,2,0,1] 1
deltaSelect[1,2,1,0] 0
deltaSelect[1,2,1,1] 0
deltaSelect[1,2,2,0] 0
deltaSelect[1,2,2,1] 0
deltaSelect[1,3,0,0] 0
deltaSelect[1,3,0,1] 1
deltaSelect[1,3,1,0] 0
deltaSelect[1,3,1,1] 0
deltaSelect[1,3,2,0] 0
deltaSelect[1,3,2,1] 0
deltaSelect[1,4,0,0] 0
deltaSelect[1,4,0,1] 1
deltaSelect[1,4,1,0] 0
deltaSelect[1,4,1,1] 0
deltaSelect[1,4,2,0] 0
deltaSelect[1,4,2,1] 0
deltaSelect[1,5,0,0] 0
deltaSelect[1,5,0,1] 1
deltaSelect[1,5,1,0] 0
deltaSelect[1,5,1,1] 0
deltaSelect[1,5,2,0] 0
deltaSelect[1,5,2,1] 0
deltaSelect[1,6,0,0] 0
deltaSelect[1,6,0,1] 1
deltaSelect[1,6,1,0] 0
deltaSelect[1,6,1,1] 0
deltaSelect[1,6,2,0] 0
deltaSelect[1,6,2,1] 0
deltaSelect[1,7,0,0] 0
deltaSelect[1,7,0,1] 1
deltaSelect[1,7,1,0] 0
deltaSelect[1,7,1,1] 0
deltaSelect[1,7,2,0] 0
deltaSelect[1,7,2,1] 0
deltaSelect[1,8,0,0] 0
deltaSelect[1,8,0,1] 1
deltaSelect[1,8,1,0] 0
deltaSelect[1,8,1,1] 0
deltaSelect[1,8,2,0] 0
deltaSelect[1,8,2,1] 0
deltaSelect[1,9,0,0] 0
deltaSelect[1,9,0,1] 1
deltaSelect[1,9,1,0] 0
deltaSelect[1,9,1,1] 0
deltaSelect[1,9,2,0] 0
deltaSelect[1,9,2,1] 0
deltaSelect[1,10,0,0] 0
deltaSelect[1,10,0,1] 1
deltaSelect[1,10,1,0] 0
deltaSelect[1,10,1,1] 0
deltaSelect[1,10,2,0] 0
deltaSelect[1,10,2,1] 0
deltaSelect[1,11,0,0] 0
deltaSelect[1,11,0,1] 1
deltaSelect[1,11,1,0] 0
deltaSelect[1,11,1,1] 0
deltaSelect[1,11,2,0] 0
deltaSelect[1,11,2,1] 0
deltaSelect[1,12,0,0] 0
deltaSelect[1,12,0,1] 1
deltaSelect[1,12,1,0] 0
deltaSelect[1,12,1,1] 0
deltaSelect[1,12,2,0] 0
deltaSelect[1,12,2,1] 0
deltaSelect[1,13,0,0] 0
deltaSelect[1,13,0,1] 0
deltaSelect[1,13,1,0] 0
deltaSelect[1,13,1,1] 0
deltaSelect[1,13,2,0] 0
deltaSelect[1,13,2,1] 0
deltaSelect[2,0,0,0] 0
deltaSelect[2,0,0,1] 1
deltaSelect[2,0,1,0] 0
deltaSelect[2,0,1,1] 0
deltaSelect[2,0,2,0] 0
deltaSelect[2,0,2,1] 0
deltaSelect[2,1,0,0] 0
deltaSelect[2,1,0,1] 1
deltaSelect[2,1,1,0] 0
deltaSelect[2,1,1,1] 0
deltaSelect[2,1,2,0] 0
deltaSelect[2,1,2,1] 0
deltaSelect[2,2,0,0] 0
deltaSelect[2,2,0,1] 1
deltaSelect[2,2,1,0] 0
deltaSelect[2,2,1,1] 0
deltaSelect[2,2,2,0] 0
deltaSelect[2,2,2,1] 0
deltaSelect[2,3,0,0] 0
deltaSelect[2,3,0,1] 1
deltaSelect[2,3,1,0] 0
deltaSelect[2,3,1,1] 0
deltaSelect[2,3,2,0] 0
deltaSelect[2,3,2,1] 0
deltaSelect[2,4,0,0] 0
deltaSelect[2,4,0,1] 1
deltaSelect[2,4,1,0] 0
deltaSelect[2,4,1,1] 0
deltaSelect[2,4,2,0] 0
deltaSelect[2,4,2,1] 0
deltaSelect[2,5,0,0] 0
deltaSelect[2,5,0,1] 1
deltaSelect[2,5,1,0] 0
deltaSelect[2,5,1,1] 0
deltaSelect[2,5,2,0] 0
deltaSelect[2,5,2,1] 0
deltaSelect[2,6,0,0] 0
deltaSelect[2,6,0,1] 1
deltaSelect[2,6,1,0] 0
deltaSelect[2,6,1,1] 0
deltaSelect[2,6,2,0] 0
deltaSelect[2,6,2,1] 0
deltaSelect[2,7,0,0] 0
deltaSelect[2,7,0,1] 1
deltaSelect[2,7,1,0] 0
deltaSelect[2,7,1,1] 0
deltaSelect[2,7,2,0] 0
deltaSelect[2,7,2,1] 0
deltaSelect[2,8,0,0] 0
deltaSelect[2,8,0,1] 1
deltaSelect[2,8,1,0] 0
deltaSelect[2,8,1,1] 0
deltaSelect[2,8,2,0] 0
deltaSelect[2,8,2,1] 0
deltaSelect[2,9,0,0] 0
deltaSelect[2,9,0,1] 1
deltaSelect[2,9,1,0] 0
deltaSelect[2,9,1,1] 0
deltaSelect[2,9,2,0] 0
deltaSelect[2,9,2,1] 0
deltaSelect[2,10,0,0] 0
deltaSelect[2,10,0,1] 1
deltaSelect[2,10,1,0] 0
deltaSelect[2,10,1,1] 0
deltaSelect[2,10,2,0] 0
deltaSelect[2,10,2,1] 0
deltaSelect[2,11,0,0] 0
deltaSelect[2,11,0,1] 1
deltaSelect[2,11,1,0] 0
deltaSelect[2,11,1,1] 0
deltaSelect[2,11,2,0] 0
deltaSelect[2,11,2,1] 0
deltaSelect[2,12,0,0] 0
deltaSelect[2,12,0,1] 1
deltaSelect[2,12,1,0] 0
deltaSelect[2,12,1,1] 0
deltaSelect[2,12,2,0] 0
deltaSelect[2,12,2,1] 0
deltaSelect[2,13,0,0] 0
deltaSelect[2,13,0,1] 0
deltaSelect[2,13,1,0] 0
deltaSelect[2,13,1,1] 0
deltaSelect[2,13,2,0] 0
deltaSelect[2,13,2,1] 0
timeForResourceI[0] 990
timeForResourceI[1] 990
timeForResourceI[2] 990
totalTime 990
